#AMPL tutorial for DSA/ISE 5113 students
#Author: Rafia Bushra
#Date: 01/26/2021

data;

set MONTH := feb mar apr;
set YEAR := y2019 y2020 y2021;

param type := 5; #5 different product types 
param purchase_cost := 10; 
param making_cost := 15; 
param selling_price := 25;

param demand :=
1		100
2		50
3		30
4		90
5		75;

param budget :=
y2019		500
y2020		200
y2021		750;
		
param limit:	y2019	y2020	y2021 :=
feb				75		50		100
mar				100		45		75
apr				60		40		90;
 
